32      4       
7       8       9       10      
0       0       0       0       0       3       2       3       4       
4       5       0       0       0       1       8       
10      0       8       0       0       1       6       
9       0       0       6       0       1       5       
8       1       0       0       0       1       16      
6       6       0       0       0       1       7       
2       0       0       0       10      2       10      14      
9       0       0       0       8       1       9       
2       0       1       0       0       1       10      
10      0       0       9       0       1       11      
7       0       0       0       10      1       12      
10      0       0       1       0       1       13      
4       3       0       0       0       1       15      
9       6       0       0       0       1       25      
9       0       0       2       0       3       16      23      25      
1       0       4       0       0       1       17      
10      6       0       0       0       2       18      26      
7       1       0       0       0       1       19      
9       3       0       0       0       1       20      
6       0       0       7       0       1       21      
8       0       0       9       0       1       22      
5       0       0       3       0       2       24      27      
8       0       0       0       2       1       26      
2       0       0       2       0       1       29      
10      0       0       0       7       1       27      
10      0       0       0       7       1       31      
4       0       8       0       0       1       28      
7       0       0       2       0       1       30      
6       0       0       2       0       1       31      
6       0       8       0       0       1       32      
8       6       0       0       0       1       32      
0       0       0       0       0       0       
